N = 12;
H = 5;
T = 2;

avail = array3d(1..N, 1..H, 1..T, [0, 1, 7, 2, 2, 9, 6, 9, 9, 5, 4, 1, 1, 0, 6, 6, 10, 2, 10, 2, 4, 9, 3, 8, 0, 6, 4, 3, 2, 9, 0, 4, 10, 0, 4, 2, 7, 1, 10, 0, 0, 0, 9, 7, 8, 5, 1, 1, 10, 9, 7, 6, 1, 0, 0, 1, 1, 5, 8, 4, 10, 5, 8, 2, 6, 6, 9, 7, 1, 5, 2, 9, 1, 1, 9, 1, 2, 7, 2, 7, 0, 4, 5, 10, 0, 1, 2, 5, 9, 2, 9, 10, 6, 1, 4, 4, 9, 9, 5, 0, 10, 5, 9, 0, 8, 2, 6, 6, 5, 0, 8, 5, 3, 10, 3, 4, 3, 10, 4, 9]);

r = array2d(1..H, 1..T, [3, 0, 2, 3, 2, 3, 1, 2, 2, 3]);
